GLPSOL--GLPK LP/MIP Solver 5.0
Parameter(s) specified in the command line:
 --lp ../modeles/4_394.lp --log 4_394.log
Reading problem data from '../modeles/4_394.lp'...
1593 rows, 3160 columns, 11044 non-zeros
1576 integer variables, all of which are binary
4763 lines were read
GLPK Integer Optimizer 5.0
1593 rows, 3160 columns, 11044 non-zeros
1576 integer variables, all of which are binary
Preprocessing...
1560 constraint coefficient(s) were reduced
1593 rows, 3156 columns, 11040 non-zeros
1576 integer variables, all of which are binary
Scaling...
 A: min|aij| =  1.031e-04  max|aij| =  4.000e+00  ratio =  3.881e+04
GM: min|aij| =  7.125e-02  max|aij| =  1.404e+01  ratio =  1.970e+02
EQ: min|aij| =  5.076e-03  max|aij| =  1.000e+00  ratio =  1.970e+02
2N: min|aij| =  3.906e-03  max|aij| =  1.772e+00  ratio =  4.536e+02
Constructing initial basis...
Size of triangular part is 1593
Solving LP relaxation...
GLPK Simplex Optimizer 5.0
1593 rows, 3156 columns, 11040 non-zeros
      0: obj =   8.000000000e+00 inf =   1.950e+01 (9)
     91: obj =   4.424065556e-01 inf =   0.000e+00 (0)
*   313: obj =  -1.999923089e+00 inf =   2.904e-15 (0)
OPTIMAL LP SOLUTION FOUND
Integer optimization begins...
Long-step dual simplex will be used
+   313: mip =     not found yet >=              -inf        (1; 0)
+   766: >>>>>  -1.999923089e+00 >=  -1.999923089e+00 < 0.1% (451; 0)
+   766: mip =  -1.999923089e+00 >=     tree is empty   0.0% (0; 901)
INTEGER OPTIMAL SOLUTION FOUND
Time used:   0.9 secs
Memory used: 4.5 Mb (4721696 bytes)
